
(set-option :produce-models true)
(set-option :inline-size-limit 10000)

(declare-const var0 String)

(push 1)
(assert (str.in.re var0 (re.* (re.range "\x01" "\xff"))))
(assert (str.in.re var0 ((_ re.capture 1) (re.++ re.begin-anchor (re.++ (re.union (re.range "A" "Z") (re.union (str.to.re "&") (re.union (str.to.re "#") (re.union (str.to.re "1") (re.union (str.to.re "9") (re.union (str.to.re "2") (re.union (re.range ";" "&") (re.union (str.to.re "#") (re.union (str.to.re "2") (re.union (str.to.re "2") (re.union (str.to.re "0") (str.to.re ";")))))))))))) (re.++ (re.+ (re.union (re.range "a" "z") (re.union (str.to.re "&") (re.union (str.to.re "#") (re.union (str.to.re "2") (re.union (str.to.re "2") (re.union (str.to.re "4") (re.union (re.range ";" "&") (re.union (str.to.re "#") (re.union (str.to.re "2") (re.union (str.to.re "5") (re.union (str.to.re "2") (re.union (str.to.re ";") (re.union (str.to.re "&") (re.union (str.to.re "#") (re.union (str.to.re "3") (re.union (str.to.re "9") (str.to.re ";")))))))))))))))))) (re.++ (re.union (str.to.re " ") (re.union (str.to.re "\u{0b}") (re.union (str.to.re "\u{0a}") (re.union (str.to.re "\u{0d}") (re.union (str.to.re "\u{09}") (str.to.re "\u{0c}")))))) (re.++ (re.+ (re.union (re.range "a" "z") (re.union (re.range "A" "Z") (re.union (str.to.re "&") (re.union (str.to.re "#") (re.union (str.to.re "2") (re.union (str.to.re "2") (re.union (str.to.re "4") (re.union (re.range ";" "&") (re.union (str.to.re "#") (re.union (str.to.re "2") (re.union (str.to.re "5") (re.union (str.to.re "2") (re.union (str.to.re ";") (re.union (str.to.re "&") (re.union (str.to.re "#") (re.union (str.to.re "1") (re.union (str.to.re "9") (re.union (str.to.re "2") (re.union (re.range ";" "&") (re.union (str.to.re "#") (re.union (str.to.re "2") (re.union (str.to.re "2") (re.union (str.to.re "0") (str.to.re ";"))))))))))))))))))))))))) ((_ re.capture 2) (re.union ((_ re.capture 3) (re.union ((_ re.capture 4) (re.union (re.union (re.++ (str.to.re "\u{20}") re.all) (re.union (re.++ (str.to.re "\u{0b}") re.all) (re.union (re.++ (str.to.re "\u{0a}") re.all) (re.union (re.++ (str.to.re "\u{0d}") re.all) (re.union (re.++ (str.to.re "\u{09}") re.all) (re.++ (str.to.re "\u{0c}") re.all)))))) (re.union (re.++ (str.to.re ".") re.all) (re.union (re.++ (str.to.re "&") re.all) (re.union (re.++ (str.to.re "#") re.all) (re.union (re.++ (str.to.re "3") re.all) (re.union (re.++ (str.to.re "9") re.all) (re.++ (str.to.re ";") re.all)))))))) ((_ re.capture 5) (re.++ (re.+ (re.union (re.range "a" "z") (re.union (str.to.re "&") (re.union (str.to.re "#") (re.union (str.to.re "2") (re.union (str.to.re "2") (re.union (str.to.re "4") (re.union (re.range ";" "&") (re.union (str.to.re "#") (re.union (str.to.re "2") (re.union (str.to.re "5") (re.union (str.to.re "2") (re.union (str.to.re ";") (re.union (str.to.re "&") (re.union (str.to.re "#") (re.union (str.to.re "3") (re.union (str.to.re "9") (str.to.re ";")))))))))))))))))) re.all)))) (re.++ (re.+ (re.union (re.range "a" "z") (re.union (str.to.re "&") (re.union (str.to.re "#") (re.union (str.to.re "2") (re.union (str.to.re "2") (re.union (str.to.re "4") (re.union (re.range ";" "&") (re.union (str.to.re "#") (re.union (str.to.re "2") (re.union (str.to.re "5") (re.union (str.to.re "2") (re.union (str.to.re ";") (re.union (str.to.re "&") (re.union (str.to.re "#") (re.union (str.to.re "3") (re.union (str.to.re "9") (str.to.re ";")))))))))))))))))) (re.++ (re.+ (re.union (re.range "a" "z") (re.union (re.range "A" "Z") (re.union (str.to.re "&") (re.union (str.to.re "#") (re.union (str.to.re "2") (re.union (str.to.re "2") (re.union (str.to.re "4") (re.union (re.range ";" "&") (re.union (str.to.re "#") (re.union (str.to.re "2") (re.union (str.to.re "5") (re.union (str.to.re "2") (re.union (str.to.re ";") (re.union (str.to.re "&") (re.union (str.to.re "#") (re.union (str.to.re "1") (re.union (str.to.re "9") (re.union (str.to.re "2") (re.union (re.range ";" "&") (re.union (str.to.re "#") (re.union (str.to.re "2") (re.union (str.to.re "2") (re.union (str.to.re "0") (re.union (str.to.re ";") (re.union (str.to.re "&") (re.union (str.to.re "#") (re.union (str.to.re "3") (re.union (str.to.re "9") (str.to.re ";")))))))))))))))))))))))))))))) re.all))))))))))))	; match!==null
(assert (not (str.in.re ((_ str.extract 1) var0 ((_ re.capture 1) (re.++ re.begin-anchor (re.++ (re.union (re.range "A" "Z") (re.union (str.to.re "&") (re.union (str.to.re "#") (re.union (str.to.re "1") (re.union (str.to.re "9") (re.union (str.to.re "2") (re.union (re.range ";" "&") (re.union (str.to.re "#") (re.union (str.to.re "2") (re.union (str.to.re "2") (re.union (str.to.re "0") (str.to.re ";")))))))))))) (re.++ (re.+ (re.union (re.range "a" "z") (re.union (str.to.re "&") (re.union (str.to.re "#") (re.union (str.to.re "2") (re.union (str.to.re "2") (re.union (str.to.re "4") (re.union (re.range ";" "&") (re.union (str.to.re "#") (re.union (str.to.re "2") (re.union (str.to.re "5") (re.union (str.to.re "2") (re.union (str.to.re ";") (re.union (str.to.re "&") (re.union (str.to.re "#") (re.union (str.to.re "3") (re.union (str.to.re "9") (str.to.re ";")))))))))))))))))) (re.++ (re.union (str.to.re " ") (re.union (str.to.re "\u{0b}") (re.union (str.to.re "\u{0a}") (re.union (str.to.re "\u{0d}") (re.union (str.to.re "\u{09}") (str.to.re "\u{0c}")))))) (re.++ (re.+ (re.union (re.range "a" "z") (re.union (re.range "A" "Z") (re.union (str.to.re "&") (re.union (str.to.re "#") (re.union (str.to.re "2") (re.union (str.to.re "2") (re.union (str.to.re "4") (re.union (re.range ";" "&") (re.union (str.to.re "#") (re.union (str.to.re "2") (re.union (str.to.re "5") (re.union (str.to.re "2") (re.union (str.to.re ";") (re.union (str.to.re "&") (re.union (str.to.re "#") (re.union (str.to.re "1") (re.union (str.to.re "9") (re.union (str.to.re "2") (re.union (re.range ";" "&") (re.union (str.to.re "#") (re.union (str.to.re "2") (re.union (str.to.re "2") (re.union (str.to.re "0") (str.to.re ";"))))))))))))))))))))))))) ((_ re.capture 2) (re.union ((_ re.capture 3) (re.union ((_ re.capture 4) (re.union (re.union (re.++ (str.to.re "\u{20}") re.all) (re.union (re.++ (str.to.re "\u{0b}") re.all) (re.union (re.++ (str.to.re "\u{0a}") re.all) (re.union (re.++ (str.to.re "\u{0d}") re.all) (re.union (re.++ (str.to.re "\u{09}") re.all) (re.++ (str.to.re "\u{0c}") re.all)))))) (re.union (re.++ (str.to.re ".") re.all) (re.union (re.++ (str.to.re "&") re.all) (re.union (re.++ (str.to.re "#") re.all) (re.union (re.++ (str.to.re "3") re.all) (re.union (re.++ (str.to.re "9") re.all) (re.++ (str.to.re ";") re.all)))))))) ((_ re.capture 5) (re.++ (re.+ (re.union (re.range "a" "z") (re.union (str.to.re "&") (re.union (str.to.re "#") (re.union (str.to.re "2") (re.union (str.to.re "2") (re.union (str.to.re "4") (re.union (re.range ";" "&") (re.union (str.to.re "#") (re.union (str.to.re "2") (re.union (str.to.re "5") (re.union (str.to.re "2") (re.union (str.to.re ";") (re.union (str.to.re "&") (re.union (str.to.re "#") (re.union (str.to.re "3") (re.union (str.to.re "9") (str.to.re ";")))))))))))))))))) re.all)))) (re.++ (re.+ (re.union (re.range "a" "z") (re.union (str.to.re "&") (re.union (str.to.re "#") (re.union (str.to.re "2") (re.union (str.to.re "2") (re.union (str.to.re "4") (re.union (re.range ";" "&") (re.union (str.to.re "#") (re.union (str.to.re "2") (re.union (str.to.re "5") (re.union (str.to.re "2") (re.union (str.to.re ";") (re.union (str.to.re "&") (re.union (str.to.re "#") (re.union (str.to.re "3") (re.union (str.to.re "9") (str.to.re ";")))))))))))))))))) (re.++ (re.+ (re.union (re.range "a" "z") (re.union (re.range "A" "Z") (re.union (str.to.re "&") (re.union (str.to.re "#") (re.union (str.to.re "2") (re.union (str.to.re "2") (re.union (str.to.re "4") (re.union (re.range ";" "&") (re.union (str.to.re "#") (re.union (str.to.re "2") (re.union (str.to.re "5") (re.union (str.to.re "2") (re.union (str.to.re ";") (re.union (str.to.re "&") (re.union (str.to.re "#") (re.union (str.to.re "1") (re.union (str.to.re "9") (re.union (str.to.re "2") (re.union (re.range ";" "&") (re.union (str.to.re "#") (re.union (str.to.re "2") (re.union (str.to.re "2") (re.union (str.to.re "0") (re.union (str.to.re ";") (re.union (str.to.re "&") (re.union (str.to.re "#") (re.union (str.to.re "3") (re.union (str.to.re "9") (str.to.re ";")))))))))))))))))))))))))))))) re.all))))))))))) (str.to.re "\x00"))))
;match[1]!==null
(assert (str.in.re ((_ str.extract 1) var0 ((_ re.capture 1) (re.++ re.begin-anchor (re.++ (re.union (re.range "A" "Z") (re.union (str.to.re "&") (re.union (str.to.re "#") (re.union (str.to.re "1") (re.union (str.to.re "9") (re.union (str.to.re "2") (re.union (re.range ";" "&") (re.union (str.to.re "#") (re.union (str.to.re "2") (re.union (str.to.re "2") (re.union (str.to.re "0") (str.to.re ";")))))))))))) (re.++ (re.+ (re.union (re.range "a" "z") (re.union (str.to.re "&") (re.union (str.to.re "#") (re.union (str.to.re "2") (re.union (str.to.re "2") (re.union (str.to.re "4") (re.union (re.range ";" "&") (re.union (str.to.re "#") (re.union (str.to.re "2") (re.union (str.to.re "5") (re.union (str.to.re "2") (re.union (str.to.re ";") (re.union (str.to.re "&") (re.union (str.to.re "#") (re.union (str.to.re "3") (re.union (str.to.re "9") (str.to.re ";")))))))))))))))))) (re.++ (re.union (str.to.re " ") (re.union (str.to.re "\u{0b}") (re.union (str.to.re "\u{0a}") (re.union (str.to.re "\u{0d}") (re.union (str.to.re "\u{09}") (str.to.re "\u{0c}")))))) (re.++ (re.+ (re.union (re.range "a" "z") (re.union (re.range "A" "Z") (re.union (str.to.re "&") (re.union (str.to.re "#") (re.union (str.to.re "2") (re.union (str.to.re "2") (re.union (str.to.re "4") (re.union (re.range ";" "&") (re.union (str.to.re "#") (re.union (str.to.re "2") (re.union (str.to.re "5") (re.union (str.to.re "2") (re.union (str.to.re ";") (re.union (str.to.re "&") (re.union (str.to.re "#") (re.union (str.to.re "1") (re.union (str.to.re "9") (re.union (str.to.re "2") (re.union (re.range ";" "&") (re.union (str.to.re "#") (re.union (str.to.re "2") (re.union (str.to.re "2") (re.union (str.to.re "0") (str.to.re ";"))))))))))))))))))))))))) ((_ re.capture 2) (re.union ((_ re.capture 3) (re.union ((_ re.capture 4) (re.union (re.union (re.++ (str.to.re "\u{20}") re.all) (re.union (re.++ (str.to.re "\u{0b}") re.all) (re.union (re.++ (str.to.re "\u{0a}") re.all) (re.union (re.++ (str.to.re "\u{0d}") re.all) (re.union (re.++ (str.to.re "\u{09}") re.all) (re.++ (str.to.re "\u{0c}") re.all)))))) (re.union (re.++ (str.to.re ".") re.all) (re.union (re.++ (str.to.re "&") re.all) (re.union (re.++ (str.to.re "#") re.all) (re.union (re.++ (str.to.re "3") re.all) (re.union (re.++ (str.to.re "9") re.all) (re.++ (str.to.re ";") re.all)))))))) ((_ re.capture 5) (re.++ (re.+ (re.union (re.range "a" "z") (re.union (str.to.re "&") (re.union (str.to.re "#") (re.union (str.to.re "2") (re.union (str.to.re "2") (re.union (str.to.re "4") (re.union (re.range ";" "&") (re.union (str.to.re "#") (re.union (str.to.re "2") (re.union (str.to.re "5") (re.union (str.to.re "2") (re.union (str.to.re ";") (re.union (str.to.re "&") (re.union (str.to.re "#") (re.union (str.to.re "3") (re.union (str.to.re "9") (str.to.re ";")))))))))))))))))) re.all)))) (re.++ (re.+ (re.union (re.range "a" "z") (re.union (str.to.re "&") (re.union (str.to.re "#") (re.union (str.to.re "2") (re.union (str.to.re "2") (re.union (str.to.re "4") (re.union (re.range ";" "&") (re.union (str.to.re "#") (re.union (str.to.re "2") (re.union (str.to.re "5") (re.union (str.to.re "2") (re.union (str.to.re ";") (re.union (str.to.re "&") (re.union (str.to.re "#") (re.union (str.to.re "3") (re.union (str.to.re "9") (str.to.re ";")))))))))))))))))) (re.++ (re.+ (re.union (re.range "a" "z") (re.union (re.range "A" "Z") (re.union (str.to.re "&") (re.union (str.to.re "#") (re.union (str.to.re "2") (re.union (str.to.re "2") (re.union (str.to.re "4") (re.union (re.range ";" "&") (re.union (str.to.re "#") (re.union (str.to.re "2") (re.union (str.to.re "5") (re.union (str.to.re "2") (re.union (str.to.re ";") (re.union (str.to.re "&") (re.union (str.to.re "#") (re.union (str.to.re "1") (re.union (str.to.re "9") (re.union (str.to.re "2") (re.union (re.range ";" "&") (re.union (str.to.re "#") (re.union (str.to.re "2") (re.union (str.to.re "2") (re.union (str.to.re "0") (re.union (str.to.re ";") (re.union (str.to.re "&") (re.union (str.to.re "#") (re.union (str.to.re "3") (re.union (str.to.re "9") (str.to.re ";")))))))))))))))))))))))))))))) re.all))))))))))) (re.++ re.all(re.+ (re.range "a" "z")) re.all) ))
;/[a-z]+/.test(match[1]) == true
(check-sat)
(get-model)
(pop 1)
(push 1)
(assert (str.in.re var0 (re.* (re.range "\x01" "\xff"))))
(assert (str.in.re var0 ((_ re.capture 1) (re.++ re.begin-anchor (re.++ (re.union (re.range "A" "Z") (re.union (str.to.re "&") (re.union (str.to.re "#") (re.union (str.to.re "1") (re.union (str.to.re "9") (re.union (str.to.re "2") (re.union (re.range ";" "&") (re.union (str.to.re "#") (re.union (str.to.re "2") (re.union (str.to.re "2") (re.union (str.to.re "0") (str.to.re ";")))))))))))) (re.++ (re.+ (re.union (re.range "a" "z") (re.union (str.to.re "&") (re.union (str.to.re "#") (re.union (str.to.re "2") (re.union (str.to.re "2") (re.union (str.to.re "4") (re.union (re.range ";" "&") (re.union (str.to.re "#") (re.union (str.to.re "2") (re.union (str.to.re "5") (re.union (str.to.re "2") (re.union (str.to.re ";") (re.union (str.to.re "&") (re.union (str.to.re "#") (re.union (str.to.re "3") (re.union (str.to.re "9") (str.to.re ";")))))))))))))))))) (re.++ (re.union (str.to.re " ") (re.union (str.to.re "\u{0b}") (re.union (str.to.re "\u{0a}") (re.union (str.to.re "\u{0d}") (re.union (str.to.re "\u{09}") (str.to.re "\u{0c}")))))) (re.++ (re.+ (re.union (re.range "a" "z") (re.union (re.range "A" "Z") (re.union (str.to.re "&") (re.union (str.to.re "#") (re.union (str.to.re "2") (re.union (str.to.re "2") (re.union (str.to.re "4") (re.union (re.range ";" "&") (re.union (str.to.re "#") (re.union (str.to.re "2") (re.union (str.to.re "5") (re.union (str.to.re "2") (re.union (str.to.re ";") (re.union (str.to.re "&") (re.union (str.to.re "#") (re.union (str.to.re "1") (re.union (str.to.re "9") (re.union (str.to.re "2") (re.union (re.range ";" "&") (re.union (str.to.re "#") (re.union (str.to.re "2") (re.union (str.to.re "2") (re.union (str.to.re "0") (str.to.re ";"))))))))))))))))))))))))) ((_ re.capture 2) (re.union ((_ re.capture 3) (re.union ((_ re.capture 4) (re.union (re.union (re.++ (str.to.re "\u{20}") re.all) (re.union (re.++ (str.to.re "\u{0b}") re.all) (re.union (re.++ (str.to.re "\u{0a}") re.all) (re.union (re.++ (str.to.re "\u{0d}") re.all) (re.union (re.++ (str.to.re "\u{09}") re.all) (re.++ (str.to.re "\u{0c}") re.all)))))) (re.union (re.++ (str.to.re ".") re.all) (re.union (re.++ (str.to.re "&") re.all) (re.union (re.++ (str.to.re "#") re.all) (re.union (re.++ (str.to.re "3") re.all) (re.union (re.++ (str.to.re "9") re.all) (re.++ (str.to.re ";") re.all)))))))) ((_ re.capture 5) (re.++ (re.+ (re.union (re.range "a" "z") (re.union (str.to.re "&") (re.union (str.to.re "#") (re.union (str.to.re "2") (re.union (str.to.re "2") (re.union (str.to.re "4") (re.union (re.range ";" "&") (re.union (str.to.re "#") (re.union (str.to.re "2") (re.union (str.to.re "5") (re.union (str.to.re "2") (re.union (str.to.re ";") (re.union (str.to.re "&") (re.union (str.to.re "#") (re.union (str.to.re "3") (re.union (str.to.re "9") (str.to.re ";")))))))))))))))))) re.all)))) (re.++ (re.+ (re.union (re.range "a" "z") (re.union (str.to.re "&") (re.union (str.to.re "#") (re.union (str.to.re "2") (re.union (str.to.re "2") (re.union (str.to.re "4") (re.union (re.range ";" "&") (re.union (str.to.re "#") (re.union (str.to.re "2") (re.union (str.to.re "5") (re.union (str.to.re "2") (re.union (str.to.re ";") (re.union (str.to.re "&") (re.union (str.to.re "#") (re.union (str.to.re "3") (re.union (str.to.re "9") (str.to.re ";")))))))))))))))))) (re.++ (re.+ (re.union (re.range "a" "z") (re.union (re.range "A" "Z") (re.union (str.to.re "&") (re.union (str.to.re "#") (re.union (str.to.re "2") (re.union (str.to.re "2") (re.union (str.to.re "4") (re.union (re.range ";" "&") (re.union (str.to.re "#") (re.union (str.to.re "2") (re.union (str.to.re "5") (re.union (str.to.re "2") (re.union (str.to.re ";") (re.union (str.to.re "&") (re.union (str.to.re "#") (re.union (str.to.re "1") (re.union (str.to.re "9") (re.union (str.to.re "2") (re.union (re.range ";" "&") (re.union (str.to.re "#") (re.union (str.to.re "2") (re.union (str.to.re "2") (re.union (str.to.re "0") (re.union (str.to.re ";") (re.union (str.to.re "&") (re.union (str.to.re "#") (re.union (str.to.re "3") (re.union (str.to.re "9") (str.to.re ";")))))))))))))))))))))))))))))) re.all))))))))))))	; match!==null
(assert (not (str.in.re ((_ str.extract 1) var0 ((_ re.capture 1) (re.++ re.begin-anchor (re.++ (re.union (re.range "A" "Z") (re.union (str.to.re "&") (re.union (str.to.re "#") (re.union (str.to.re "1") (re.union (str.to.re "9") (re.union (str.to.re "2") (re.union (re.range ";" "&") (re.union (str.to.re "#") (re.union (str.to.re "2") (re.union (str.to.re "2") (re.union (str.to.re "0") (str.to.re ";")))))))))))) (re.++ (re.+ (re.union (re.range "a" "z") (re.union (str.to.re "&") (re.union (str.to.re "#") (re.union (str.to.re "2") (re.union (str.to.re "2") (re.union (str.to.re "4") (re.union (re.range ";" "&") (re.union (str.to.re "#") (re.union (str.to.re "2") (re.union (str.to.re "5") (re.union (str.to.re "2") (re.union (str.to.re ";") (re.union (str.to.re "&") (re.union (str.to.re "#") (re.union (str.to.re "3") (re.union (str.to.re "9") (str.to.re ";")))))))))))))))))) (re.++ (re.union (str.to.re " ") (re.union (str.to.re "\u{0b}") (re.union (str.to.re "\u{0a}") (re.union (str.to.re "\u{0d}") (re.union (str.to.re "\u{09}") (str.to.re "\u{0c}")))))) (re.++ (re.+ (re.union (re.range "a" "z") (re.union (re.range "A" "Z") (re.union (str.to.re "&") (re.union (str.to.re "#") (re.union (str.to.re "2") (re.union (str.to.re "2") (re.union (str.to.re "4") (re.union (re.range ";" "&") (re.union (str.to.re "#") (re.union (str.to.re "2") (re.union (str.to.re "5") (re.union (str.to.re "2") (re.union (str.to.re ";") (re.union (str.to.re "&") (re.union (str.to.re "#") (re.union (str.to.re "1") (re.union (str.to.re "9") (re.union (str.to.re "2") (re.union (re.range ";" "&") (re.union (str.to.re "#") (re.union (str.to.re "2") (re.union (str.to.re "2") (re.union (str.to.re "0") (str.to.re ";"))))))))))))))))))))))))) ((_ re.capture 2) (re.union ((_ re.capture 3) (re.union ((_ re.capture 4) (re.union (re.union (re.++ (str.to.re "\u{20}") re.all) (re.union (re.++ (str.to.re "\u{0b}") re.all) (re.union (re.++ (str.to.re "\u{0a}") re.all) (re.union (re.++ (str.to.re "\u{0d}") re.all) (re.union (re.++ (str.to.re "\u{09}") re.all) (re.++ (str.to.re "\u{0c}") re.all)))))) (re.union (re.++ (str.to.re ".") re.all) (re.union (re.++ (str.to.re "&") re.all) (re.union (re.++ (str.to.re "#") re.all) (re.union (re.++ (str.to.re "3") re.all) (re.union (re.++ (str.to.re "9") re.all) (re.++ (str.to.re ";") re.all)))))))) ((_ re.capture 5) (re.++ (re.+ (re.union (re.range "a" "z") (re.union (str.to.re "&") (re.union (str.to.re "#") (re.union (str.to.re "2") (re.union (str.to.re "2") (re.union (str.to.re "4") (re.union (re.range ";" "&") (re.union (str.to.re "#") (re.union (str.to.re "2") (re.union (str.to.re "5") (re.union (str.to.re "2") (re.union (str.to.re ";") (re.union (str.to.re "&") (re.union (str.to.re "#") (re.union (str.to.re "3") (re.union (str.to.re "9") (str.to.re ";")))))))))))))))))) re.all)))) (re.++ (re.+ (re.union (re.range "a" "z") (re.union (str.to.re "&") (re.union (str.to.re "#") (re.union (str.to.re "2") (re.union (str.to.re "2") (re.union (str.to.re "4") (re.union (re.range ";" "&") (re.union (str.to.re "#") (re.union (str.to.re "2") (re.union (str.to.re "5") (re.union (str.to.re "2") (re.union (str.to.re ";") (re.union (str.to.re "&") (re.union (str.to.re "#") (re.union (str.to.re "3") (re.union (str.to.re "9") (str.to.re ";")))))))))))))))))) (re.++ (re.+ (re.union (re.range "a" "z") (re.union (re.range "A" "Z") (re.union (str.to.re "&") (re.union (str.to.re "#") (re.union (str.to.re "2") (re.union (str.to.re "2") (re.union (str.to.re "4") (re.union (re.range ";" "&") (re.union (str.to.re "#") (re.union (str.to.re "2") (re.union (str.to.re "5") (re.union (str.to.re "2") (re.union (str.to.re ";") (re.union (str.to.re "&") (re.union (str.to.re "#") (re.union (str.to.re "1") (re.union (str.to.re "9") (re.union (str.to.re "2") (re.union (re.range ";" "&") (re.union (str.to.re "#") (re.union (str.to.re "2") (re.union (str.to.re "2") (re.union (str.to.re "0") (re.union (str.to.re ";") (re.union (str.to.re "&") (re.union (str.to.re "#") (re.union (str.to.re "3") (re.union (str.to.re "9") (str.to.re ";")))))))))))))))))))))))))))))) re.all))))))))))) (str.to.re "\x00"))))	
;match[1]!==null
(assert (not (str.in.re ((_ str.extract 1) var0 ((_ re.capture 1) (re.++ re.begin-anchor (re.++ (re.union (re.range "A" "Z") (re.union (str.to.re "&") (re.union (str.to.re "#") (re.union (str.to.re "1") (re.union (str.to.re "9") (re.union (str.to.re "2") (re.union (re.range ";" "&") (re.union (str.to.re "#") (re.union (str.to.re "2") (re.union (str.to.re "2") (re.union (str.to.re "0") (str.to.re ";")))))))))))) (re.++ (re.+ (re.union (re.range "a" "z") (re.union (str.to.re "&") (re.union (str.to.re "#") (re.union (str.to.re "2") (re.union (str.to.re "2") (re.union (str.to.re "4") (re.union (re.range ";" "&") (re.union (str.to.re "#") (re.union (str.to.re "2") (re.union (str.to.re "5") (re.union (str.to.re "2") (re.union (str.to.re ";") (re.union (str.to.re "&") (re.union (str.to.re "#") (re.union (str.to.re "3") (re.union (str.to.re "9") (str.to.re ";")))))))))))))))))) (re.++ (re.union (str.to.re " ") (re.union (str.to.re "\u{0b}") (re.union (str.to.re "\u{0a}") (re.union (str.to.re "\u{0d}") (re.union (str.to.re "\u{09}") (str.to.re "\u{0c}")))))) (re.++ (re.+ (re.union (re.range "a" "z") (re.union (re.range "A" "Z") (re.union (str.to.re "&") (re.union (str.to.re "#") (re.union (str.to.re "2") (re.union (str.to.re "2") (re.union (str.to.re "4") (re.union (re.range ";" "&") (re.union (str.to.re "#") (re.union (str.to.re "2") (re.union (str.to.re "5") (re.union (str.to.re "2") (re.union (str.to.re ";") (re.union (str.to.re "&") (re.union (str.to.re "#") (re.union (str.to.re "1") (re.union (str.to.re "9") (re.union (str.to.re "2") (re.union (re.range ";" "&") (re.union (str.to.re "#") (re.union (str.to.re "2") (re.union (str.to.re "2") (re.union (str.to.re "0") (str.to.re ";"))))))))))))))))))))))))) ((_ re.capture 2) (re.union ((_ re.capture 3) (re.union ((_ re.capture 4) (re.union (re.union (re.++ (str.to.re "\u{20}") re.all) (re.union (re.++ (str.to.re "\u{0b}") re.all) (re.union (re.++ (str.to.re "\u{0a}") re.all) (re.union (re.++ (str.to.re "\u{0d}") re.all) (re.union (re.++ (str.to.re "\u{09}") re.all) (re.++ (str.to.re "\u{0c}") re.all)))))) (re.union (re.++ (str.to.re ".") re.all) (re.union (re.++ (str.to.re "&") re.all) (re.union (re.++ (str.to.re "#") re.all) (re.union (re.++ (str.to.re "3") re.all) (re.union (re.++ (str.to.re "9") re.all) (re.++ (str.to.re ";") re.all)))))))) ((_ re.capture 5) (re.++ (re.+ (re.union (re.range "a" "z") (re.union (str.to.re "&") (re.union (str.to.re "#") (re.union (str.to.re "2") (re.union (str.to.re "2") (re.union (str.to.re "4") (re.union (re.range ";" "&") (re.union (str.to.re "#") (re.union (str.to.re "2") (re.union (str.to.re "5") (re.union (str.to.re "2") (re.union (str.to.re ";") (re.union (str.to.re "&") (re.union (str.to.re "#") (re.union (str.to.re "3") (re.union (str.to.re "9") (str.to.re ";")))))))))))))))))) re.all)))) (re.++ (re.+ (re.union (re.range "a" "z") (re.union (str.to.re "&") (re.union (str.to.re "#") (re.union (str.to.re "2") (re.union (str.to.re "2") (re.union (str.to.re "4") (re.union (re.range ";" "&") (re.union (str.to.re "#") (re.union (str.to.re "2") (re.union (str.to.re "5") (re.union (str.to.re "2") (re.union (str.to.re ";") (re.union (str.to.re "&") (re.union (str.to.re "#") (re.union (str.to.re "3") (re.union (str.to.re "9") (str.to.re ";")))))))))))))))))) (re.++ (re.+ (re.union (re.range "a" "z") (re.union (re.range "A" "Z") (re.union (str.to.re "&") (re.union (str.to.re "#") (re.union (str.to.re "2") (re.union (str.to.re "2") (re.union (str.to.re "4") (re.union (re.range ";" "&") (re.union (str.to.re "#") (re.union (str.to.re "2") (re.union (str.to.re "5") (re.union (str.to.re "2") (re.union (str.to.re ";") (re.union (str.to.re "&") (re.union (str.to.re "#") (re.union (str.to.re "1") (re.union (str.to.re "9") (re.union (str.to.re "2") (re.union (re.range ";" "&") (re.union (str.to.re "#") (re.union (str.to.re "2") (re.union (str.to.re "2") (re.union (str.to.re "0") (re.union (str.to.re ";") (re.union (str.to.re "&") (re.union (str.to.re "#") (re.union (str.to.re "3") (re.union (str.to.re "9") (str.to.re ";")))))))))))))))))))))))))))))) re.all))))))))))) (re.++ re.all(re.+ (re.range "a" "z")) re.all) )))
;/[a-z]+/.test(match[1]) == false	
(check-sat)
(get-model)
(pop 1)
(push 1)
(assert (str.in.re var0 (re.* (re.range "\x01" "\xff"))))
(assert (str.in.re var0 ((_ re.capture 1) (re.++ re.begin-anchor (re.++ (re.union (re.range "A" "Z") (re.union (str.to.re "&") (re.union (str.to.re "#") (re.union (str.to.re "1") (re.union (str.to.re "9") (re.union (str.to.re "2") (re.union (re.range ";" "&") (re.union (str.to.re "#") (re.union (str.to.re "2") (re.union (str.to.re "2") (re.union (str.to.re "0") (str.to.re ";")))))))))))) (re.++ (re.+ (re.union (re.range "a" "z") (re.union (str.to.re "&") (re.union (str.to.re "#") (re.union (str.to.re "2") (re.union (str.to.re "2") (re.union (str.to.re "4") (re.union (re.range ";" "&") (re.union (str.to.re "#") (re.union (str.to.re "2") (re.union (str.to.re "5") (re.union (str.to.re "2") (re.union (str.to.re ";") (re.union (str.to.re "&") (re.union (str.to.re "#") (re.union (str.to.re "3") (re.union (str.to.re "9") (str.to.re ";")))))))))))))))))) (re.++ (re.union (str.to.re " ") (re.union (str.to.re "\u{0b}") (re.union (str.to.re "\u{0a}") (re.union (str.to.re "\u{0d}") (re.union (str.to.re "\u{09}") (str.to.re "\u{0c}")))))) (re.++ (re.+ (re.union (re.range "a" "z") (re.union (re.range "A" "Z") (re.union (str.to.re "&") (re.union (str.to.re "#") (re.union (str.to.re "2") (re.union (str.to.re "2") (re.union (str.to.re "4") (re.union (re.range ";" "&") (re.union (str.to.re "#") (re.union (str.to.re "2") (re.union (str.to.re "5") (re.union (str.to.re "2") (re.union (str.to.re ";") (re.union (str.to.re "&") (re.union (str.to.re "#") (re.union (str.to.re "1") (re.union (str.to.re "9") (re.union (str.to.re "2") (re.union (re.range ";" "&") (re.union (str.to.re "#") (re.union (str.to.re "2") (re.union (str.to.re "2") (re.union (str.to.re "0") (str.to.re ";"))))))))))))))))))))))))) ((_ re.capture 2) (re.union ((_ re.capture 3) (re.union ((_ re.capture 4) (re.union (re.union (re.++ (str.to.re "\u{20}") re.all) (re.union (re.++ (str.to.re "\u{0b}") re.all) (re.union (re.++ (str.to.re "\u{0a}") re.all) (re.union (re.++ (str.to.re "\u{0d}") re.all) (re.union (re.++ (str.to.re "\u{09}") re.all) (re.++ (str.to.re "\u{0c}") re.all)))))) (re.union (re.++ (str.to.re ".") re.all) (re.union (re.++ (str.to.re "&") re.all) (re.union (re.++ (str.to.re "#") re.all) (re.union (re.++ (str.to.re "3") re.all) (re.union (re.++ (str.to.re "9") re.all) (re.++ (str.to.re ";") re.all)))))))) ((_ re.capture 5) (re.++ (re.+ (re.union (re.range "a" "z") (re.union (str.to.re "&") (re.union (str.to.re "#") (re.union (str.to.re "2") (re.union (str.to.re "2") (re.union (str.to.re "4") (re.union (re.range ";" "&") (re.union (str.to.re "#") (re.union (str.to.re "2") (re.union (str.to.re "5") (re.union (str.to.re "2") (re.union (str.to.re ";") (re.union (str.to.re "&") (re.union (str.to.re "#") (re.union (str.to.re "3") (re.union (str.to.re "9") (str.to.re ";")))))))))))))))))) re.all)))) (re.++ (re.+ (re.union (re.range "a" "z") (re.union (str.to.re "&") (re.union (str.to.re "#") (re.union (str.to.re "2") (re.union (str.to.re "2") (re.union (str.to.re "4") (re.union (re.range ";" "&") (re.union (str.to.re "#") (re.union (str.to.re "2") (re.union (str.to.re "5") (re.union (str.to.re "2") (re.union (str.to.re ";") (re.union (str.to.re "&") (re.union (str.to.re "#") (re.union (str.to.re "3") (re.union (str.to.re "9") (str.to.re ";")))))))))))))))))) (re.++ (re.+ (re.union (re.range "a" "z") (re.union (re.range "A" "Z") (re.union (str.to.re "&") (re.union (str.to.re "#") (re.union (str.to.re "2") (re.union (str.to.re "2") (re.union (str.to.re "4") (re.union (re.range ";" "&") (re.union (str.to.re "#") (re.union (str.to.re "2") (re.union (str.to.re "5") (re.union (str.to.re "2") (re.union (str.to.re ";") (re.union (str.to.re "&") (re.union (str.to.re "#") (re.union (str.to.re "1") (re.union (str.to.re "9") (re.union (str.to.re "2") (re.union (re.range ";" "&") (re.union (str.to.re "#") (re.union (str.to.re "2") (re.union (str.to.re "2") (re.union (str.to.re "0") (re.union (str.to.re ";") (re.union (str.to.re "&") (re.union (str.to.re "#") (re.union (str.to.re "3") (re.union (str.to.re "9") (str.to.re ";")))))))))))))))))))))))))))))) re.all))))))))))))	; match!==null
(assert (str.in.re ((_ str.extract 1) var0 ((_ re.capture 1) (re.++ re.begin-anchor (re.++ (re.union (re.range "A" "Z") (re.union (str.to.re "&") (re.union (str.to.re "#") (re.union (str.to.re "1") (re.union (str.to.re "9") (re.union (str.to.re "2") (re.union (re.range ";" "&") (re.union (str.to.re "#") (re.union (str.to.re "2") (re.union (str.to.re "2") (re.union (str.to.re "0") (str.to.re ";")))))))))))) (re.++ (re.+ (re.union (re.range "a" "z") (re.union (str.to.re "&") (re.union (str.to.re "#") (re.union (str.to.re "2") (re.union (str.to.re "2") (re.union (str.to.re "4") (re.union (re.range ";" "&") (re.union (str.to.re "#") (re.union (str.to.re "2") (re.union (str.to.re "5") (re.union (str.to.re "2") (re.union (str.to.re ";") (re.union (str.to.re "&") (re.union (str.to.re "#") (re.union (str.to.re "3") (re.union (str.to.re "9") (str.to.re ";")))))))))))))))))) (re.++ (re.union (str.to.re " ") (re.union (str.to.re "\u{0b}") (re.union (str.to.re "\u{0a}") (re.union (str.to.re "\u{0d}") (re.union (str.to.re "\u{09}") (str.to.re "\u{0c}")))))) (re.++ (re.+ (re.union (re.range "a" "z") (re.union (re.range "A" "Z") (re.union (str.to.re "&") (re.union (str.to.re "#") (re.union (str.to.re "2") (re.union (str.to.re "2") (re.union (str.to.re "4") (re.union (re.range ";" "&") (re.union (str.to.re "#") (re.union (str.to.re "2") (re.union (str.to.re "5") (re.union (str.to.re "2") (re.union (str.to.re ";") (re.union (str.to.re "&") (re.union (str.to.re "#") (re.union (str.to.re "1") (re.union (str.to.re "9") (re.union (str.to.re "2") (re.union (re.range ";" "&") (re.union (str.to.re "#") (re.union (str.to.re "2") (re.union (str.to.re "2") (re.union (str.to.re "0") (str.to.re ";"))))))))))))))))))))))))) ((_ re.capture 2) (re.union ((_ re.capture 3) (re.union ((_ re.capture 4) (re.union (re.union (re.++ (str.to.re "\u{20}") re.all) (re.union (re.++ (str.to.re "\u{0b}") re.all) (re.union (re.++ (str.to.re "\u{0a}") re.all) (re.union (re.++ (str.to.re "\u{0d}") re.all) (re.union (re.++ (str.to.re "\u{09}") re.all) (re.++ (str.to.re "\u{0c}") re.all)))))) (re.union (re.++ (str.to.re ".") re.all) (re.union (re.++ (str.to.re "&") re.all) (re.union (re.++ (str.to.re "#") re.all) (re.union (re.++ (str.to.re "3") re.all) (re.union (re.++ (str.to.re "9") re.all) (re.++ (str.to.re ";") re.all)))))))) ((_ re.capture 5) (re.++ (re.+ (re.union (re.range "a" "z") (re.union (str.to.re "&") (re.union (str.to.re "#") (re.union (str.to.re "2") (re.union (str.to.re "2") (re.union (str.to.re "4") (re.union (re.range ";" "&") (re.union (str.to.re "#") (re.union (str.to.re "2") (re.union (str.to.re "5") (re.union (str.to.re "2") (re.union (str.to.re ";") (re.union (str.to.re "&") (re.union (str.to.re "#") (re.union (str.to.re "3") (re.union (str.to.re "9") (str.to.re ";")))))))))))))))))) re.all)))) (re.++ (re.+ (re.union (re.range "a" "z") (re.union (str.to.re "&") (re.union (str.to.re "#") (re.union (str.to.re "2") (re.union (str.to.re "2") (re.union (str.to.re "4") (re.union (re.range ";" "&") (re.union (str.to.re "#") (re.union (str.to.re "2") (re.union (str.to.re "5") (re.union (str.to.re "2") (re.union (str.to.re ";") (re.union (str.to.re "&") (re.union (str.to.re "#") (re.union (str.to.re "3") (re.union (str.to.re "9") (str.to.re ";")))))))))))))))))) (re.++ (re.+ (re.union (re.range "a" "z") (re.union (re.range "A" "Z") (re.union (str.to.re "&") (re.union (str.to.re "#") (re.union (str.to.re "2") (re.union (str.to.re "2") (re.union (str.to.re "4") (re.union (re.range ";" "&") (re.union (str.to.re "#") (re.union (str.to.re "2") (re.union (str.to.re "5") (re.union (str.to.re "2") (re.union (str.to.re ";") (re.union (str.to.re "&") (re.union (str.to.re "#") (re.union (str.to.re "1") (re.union (str.to.re "9") (re.union (str.to.re "2") (re.union (re.range ";" "&") (re.union (str.to.re "#") (re.union (str.to.re "2") (re.union (str.to.re "2") (re.union (str.to.re "0") (re.union (str.to.re ";") (re.union (str.to.re "&") (re.union (str.to.re "#") (re.union (str.to.re "3") (re.union (str.to.re "9") (str.to.re ";")))))))))))))))))))))))))))))) re.all))))))))))) (str.to.re "\x00")))
;match[1]==null
(check-sat)
(get-model)
(pop 1)
(push 1)
(assert (str.in.re var0 (re.* (re.range "\x01" "\xff"))))
(assert (not (str.in.re var0 ((_ re.capture 1) (re.++ re.begin-anchor (re.++ (re.union (re.range "A" "Z") (re.union (str.to.re "&") (re.union (str.to.re "#") (re.union (str.to.re "1") (re.union (str.to.re "9") (re.union (str.to.re "2") (re.union (re.range ";" "&") (re.union (str.to.re "#") (re.union (str.to.re "2") (re.union (str.to.re "2") (re.union (str.to.re "0") (str.to.re ";")))))))))))) (re.++ (re.+ (re.union (re.range "a" "z") (re.union (str.to.re "&") (re.union (str.to.re "#") (re.union (str.to.re "2") (re.union (str.to.re "2") (re.union (str.to.re "4") (re.union (re.range ";" "&") (re.union (str.to.re "#") (re.union (str.to.re "2") (re.union (str.to.re "5") (re.union (str.to.re "2") (re.union (str.to.re ";") (re.union (str.to.re "&") (re.union (str.to.re "#") (re.union (str.to.re "3") (re.union (str.to.re "9") (str.to.re ";")))))))))))))))))) (re.++ (re.union (str.to.re " ") (re.union (str.to.re "\u{0b}") (re.union (str.to.re "\u{0a}") (re.union (str.to.re "\u{0d}") (re.union (str.to.re "\u{09}") (str.to.re "\u{0c}")))))) (re.++ (re.+ (re.union (re.range "a" "z") (re.union (re.range "A" "Z") (re.union (str.to.re "&") (re.union (str.to.re "#") (re.union (str.to.re "2") (re.union (str.to.re "2") (re.union (str.to.re "4") (re.union (re.range ";" "&") (re.union (str.to.re "#") (re.union (str.to.re "2") (re.union (str.to.re "5") (re.union (str.to.re "2") (re.union (str.to.re ";") (re.union (str.to.re "&") (re.union (str.to.re "#") (re.union (str.to.re "1") (re.union (str.to.re "9") (re.union (str.to.re "2") (re.union (re.range ";" "&") (re.union (str.to.re "#") (re.union (str.to.re "2") (re.union (str.to.re "2") (re.union (str.to.re "0") (str.to.re ";"))))))))))))))))))))))))) ((_ re.capture 2) (re.union ((_ re.capture 3) (re.union ((_ re.capture 4) (re.union (re.union (re.++ (str.to.re "\u{20}") re.all) (re.union (re.++ (str.to.re "\u{0b}") re.all) (re.union (re.++ (str.to.re "\u{0a}") re.all) (re.union (re.++ (str.to.re "\u{0d}") re.all) (re.union (re.++ (str.to.re "\u{09}") re.all) (re.++ (str.to.re "\u{0c}") re.all)))))) (re.union (re.++ (str.to.re ".") re.all) (re.union (re.++ (str.to.re "&") re.all) (re.union (re.++ (str.to.re "#") re.all) (re.union (re.++ (str.to.re "3") re.all) (re.union (re.++ (str.to.re "9") re.all) (re.++ (str.to.re ";") re.all)))))))) ((_ re.capture 5) (re.++ (re.+ (re.union (re.range "a" "z") (re.union (str.to.re "&") (re.union (str.to.re "#") (re.union (str.to.re "2") (re.union (str.to.re "2") (re.union (str.to.re "4") (re.union (re.range ";" "&") (re.union (str.to.re "#") (re.union (str.to.re "2") (re.union (str.to.re "5") (re.union (str.to.re "2") (re.union (str.to.re ";") (re.union (str.to.re "&") (re.union (str.to.re "#") (re.union (str.to.re "3") (re.union (str.to.re "9") (str.to.re ";")))))))))))))))))) re.all)))) (re.++ (re.+ (re.union (re.range "a" "z") (re.union (str.to.re "&") (re.union (str.to.re "#") (re.union (str.to.re "2") (re.union (str.to.re "2") (re.union (str.to.re "4") (re.union (re.range ";" "&") (re.union (str.to.re "#") (re.union (str.to.re "2") (re.union (str.to.re "5") (re.union (str.to.re "2") (re.union (str.to.re ";") (re.union (str.to.re "&") (re.union (str.to.re "#") (re.union (str.to.re "3") (re.union (str.to.re "9") (str.to.re ";")))))))))))))))))) (re.++ (re.+ (re.union (re.range "a" "z") (re.union (re.range "A" "Z") (re.union (str.to.re "&") (re.union (str.to.re "#") (re.union (str.to.re "2") (re.union (str.to.re "2") (re.union (str.to.re "4") (re.union (re.range ";" "&") (re.union (str.to.re "#") (re.union (str.to.re "2") (re.union (str.to.re "5") (re.union (str.to.re "2") (re.union (str.to.re ";") (re.union (str.to.re "&") (re.union (str.to.re "#") (re.union (str.to.re "1") (re.union (str.to.re "9") (re.union (str.to.re "2") (re.union (re.range ";" "&") (re.union (str.to.re "#") (re.union (str.to.re "2") (re.union (str.to.re "2") (re.union (str.to.re "0") (re.union (str.to.re ";") (re.union (str.to.re "&") (re.union (str.to.re "#") (re.union (str.to.re "3") (re.union (str.to.re "9") (str.to.re ";")))))))))))))))))))))))))))))) re.all)))))))))))))	; match == null
(check-sat)
(get-model)
(pop 1)
(exit)
